p edge 28 168
p 1 2
p 1 3
p 1 4
p 1 5
p 1 7
p 1 8
p 1 11
p 1 12
p 1 16
p 1 17
p 1 22
p 1 23
p 2 3
p 2 4
p 2 6
p 2 7
p 2 9
p 2 11
p 2 13
p 2 16
p 2 18
p 2 22
p 2 24
p 3 5
p 3 6
p 3 8
p 3 9
p 3 12
p 3 13
p 3 17
p 3 18
p 3 23
p 3 24
p 4 5
p 4 6
p 4 7
p 4 10
p 4 11
p 4 14
p 4 16
p 4 19
p 4 22
p 4 25
p 5 6
p 5 8
p 5 10
p 5 12
p 5 14
p 5 17
p 5 19
p 5 23
p 5 25
p 6 9
p 6 10
p 6 13
p 6 14
p 6 18
p 6 19
p 6 24
p 6 25
p 7 8
p 7 9
p 7 10
p 7 11
p 7 15
p 7 16
p 7 20
p 7 22
p 7 26
p 8 9
p 8 10
p 8 12
p 8 15
p 8 17
p 8 20
p 8 23
p 8 26
p 9 10
p 9 13
p 9 15
p 9 18
p 9 20
p 9 24
p 9 26
p 10 14
p 10 15
p 10 19
p 10 20
p 10 25
p 10 26
p 11 12
p 11 13
p 11 14
p 11 15
p 11 16
p 11 21
p 11 22
p 11 27
p 12 13
p 12 14
p 12 15
p 12 17
p 12 21
p 12 23
p 12 27
p 13 14
p 13 15
p 13 18
p 13 21
p 13 24
p 13 27
p 14 15
p 14 19
p 14 21
p 14 25
p 14 27
p 15 20
p 15 21
p 15 26
p 15 27
p 16 17
p 16 18
p 16 19
p 16 20
p 16 21
p 16 22
p 16 28
p 17 18
p 17 19
p 17 20
p 17 21
p 17 23
p 17 28
p 18 19
p 18 20
p 18 21
p 18 24
p 18 28
p 19 20
p 19 21
p 19 25
p 19 28
p 20 21
p 20 26
p 20 28
p 21 27
p 21 28
p 22 23
p 22 24
p 22 25
p 22 26
p 22 27
p 22 28
p 23 24
p 23 25
p 23 26
p 23 27
p 23 28
p 24 25
p 24 26
p 24 27
p 24 28
p 25 26
p 25 27
p 25 28
p 26 27
p 26 28
p 27 28
